c n orig vars 25
p cnf 61 131
-51 0
26 -11 0
26 -4 0
26 -3 0
26 -46 0
-26 11 4 3 46 0
27 -6 0
27 -5 0
-27 6 5 0
28 -8 0
28 -7 0
28 -10 0
28 -34 0
-28 8 7 10 34 0
-29 35 0
-29 47 0
29 -35 -47 0
30 -9 0
30 -2 0
30 -23 0
-30 9 2 23 0
31 -1 0
31 -22 0
-31 1 22 0
-32 28 0
-32 29 0
32 -28 -29 0
-33 26 0
-33 27 0
33 -26 -27 0
-34 49 0
-34 48 0
34 -49 -48 0
35 -24 0
35 -25 0
-35 24 25 0
36 -6 0
36 -5 0
-36 6 5 0
37 -11 0
37 -4 0
37 -3 0
37 -61 0
-37 11 4 3 61 0
38 -12 0
38 -43 0
-38 12 43 0
39 -14 0
39 -13 0
39 -16 0
39 -15 0
39 -44 0
-39 14 13 16 15 44 0
-40 37 0
-40 36 0
40 -37 -36 0
-41 39 0
-41 38 0
41 -39 -38 0
42 -17 0
42 -19 0
42 -18 0
42 -40 0
-42 17 19 18 40 0
-43 58 0
-43 57 0
43 -58 -57 0
-44 60 0
-44 59 0
44 -60 -59 0
-51 42 0
-51 41 0
51 -42 -41 0
-46 45 0
-46 50 0
46 -45 -50 0
47 -20 0
47 -21 0
-47 20 21 0
48 -1 0
48 -22 0
-48 1 22 0
49 -9 0
49 -2 0
49 -23 0
-49 9 2 23 0
50 -9 0
50 -2 0
-50 9 2 0
45 -1 0
45 -22 0
45 -23 0
-45 1 22 23 0
52 -20 0
52 -21 0
-52 20 21 0
53 -24 0
53 -25 0
-53 24 25 0
-54 30 0
-54 31 0
54 -30 -31 0
55 -1 0
55 -22 0
55 -23 0
-55 1 22 23 0
56 -9 0
56 -2 0
-56 9 2 0
57 -14 0
57 -13 0
57 -16 0
57 -15 0
57 -33 0
-57 14 13 16 15 33 0
58 -17 0
58 -19 0
58 -18 0
58 -32 0
-58 17 19 18 32 0
-59 53 0
-59 52 0
59 -53 -52 0
60 -8 0
60 -7 0
60 -10 0
60 -54 0
-60 8 7 10 54 0
-61 56 0
-61 55 0
61 -56 -55 0
